15 8
7 11 6 4 4 19 8 18 2 19 6 15 1 0
6 3 2 16 6 15 4 19 2 13 8 18 1 0
6 15 4 19 8 18 6 13 2 3 1 0
8 18 2 13 6 13 4 19 2 3 1 0
7 13 6 15 4 19 2 13 8 18 1 0
6 3 8 18 2 16 4 19 6 15 1 0
6 13 6 3 2 19 2 13 4 19 1 0
6 15 4 19 7 13 6 13 2 3 1 0
2 16 6 15 4 19 2 19 6 13 1 0
2 13 8 18 6 13 6 15 4 19 1 0
6 3 2 16 8 18 6 15 2 3 1 0
6 13 8 18 2 16 6 15 4 19 1 0
6 13 8 18 2 19 4 19 6 15 1 0
2 16 6 3 2 19 6 15 2 13 1 0
6 13 6 15 4 19 2 16 2 19 1 0